Instance Name : rc108
Date : 2022-07-18
Solution
Route 1 : 2 6 7 8 46 4 45 5 3 1 100
Route 2 : 69 98 88 53 78 73 79 60 55 70 68
Route 3 : 81 61 72 54 96
Route 4 : 65 83 19 18 48 21 23 25 77
Route 5 : 90 57 24 22 49 20 66
Route 6 : 12 14 47 17 16 15 13 9 11 10
Route 7 : 64 51 76 89 63 85 84 56 91
Route 8 : 82 99 52 86 87 59 97 75 58 74
Route 9 : 41 42 44 43 40 38 37 35 36 39
Route 10 : 92 94 93 71 67 50 62 80
Route 11 : 95 33 30 28 26 27 29 31 34 32
